703 1368
2 1 4
97 1 -4
338 1 -4
339 1 4
336 2 -4
357 2 -4
639 2 4
4 3 4
103 3 -4
334 3 -4
424 3 4
104 4 -4
375 4 -4
624 4 4
51 5 4
324 5 -4
533 5 4
568 5 -4
133 6 -4
444 6 -4
446 6 4
478 6 4
8 7 4
400 7 -4
401 7 4
453 7 -4
116 8 -4
352 8 -4
581 8 4
17 9 4
270 9 -4
605 9 -4
649 9 4
415 10 -4
417 10 4
508 10 4
510 10 -4
112 11 -4
317 11 4
419 11 4
448 11 -4
51 12 -4
271 12 -4
499 12 4
700 12 4
305 13 4
349 13 -4
395 13 4
480 13 -4
15 14 4
141 14 -4
456 14 -4
680 14 4
117 15 4
274 15 -4
278 15 -4
272 16 -4
324 16 -4
535 16 4
651 16 4
272 17 -4
474 17 4
538 17 -4
298 18 4
370 18 4
372 18 -4
511 18 -4
331 19 4
451 19 4
515 19 -4
670 19 -4
21 20 4
22 20 -4
118 20 4
150 20 -4
105 21 4
273 21 -4
276 21 -4
140 22 4
276 22 -4
488 22 4
24 23 4
78 23 -4
428 23 4
525 23 -4
85 24 -4
118 24 -4
119 24 4
166 25 4
204 25 4
648 25 -4
698 25 -4
27 26 4
271 26 -4
440 26 4
572 26 -4
698 27 4
699 27 -4
702 27 -4
346 28 4
391 28 -4
539 28 -4
612 28 4
30 29 -4
575 29 4
612 29 4
615 29 -4
40 30 -4
574 30 4
611 30 4
32 31 -4
350 31 4
423 31 4
483 31 -4
199 32 4
305 32 -4
619 32 4
34 33 4
35 33 -4
106 33 4
556 33 -4
61 34 -4
275 34 -4
555 34 4
149 35 4
278 35 -4
523 35 4
37 36 4
380 36 -4
462 36 4
489 36 -4
94 37 -4
106 37 -4
593 37 4
39 38 4
272 38 -4
411 38 4
607 38 -4
649 39 4
650 39 -4
653 39 -4
41 40 -4
366 40 4
656 40 4
213 41 4
43 42 -4
542 42 4
656 42 4
659 42 -4
52 43 -4
132 43 4
541 43 4
114 44 4
318 44 -4
373 44 4
518 44 -4
46 45 4
379 45 -4
586 45 4
676 45 -4
307 46 -4
424 46 -4
486 46 4
48 47 -4
95 47 4
524 47 -4
586 47 4
157 48 4
281 48 -4
554 48 4
356 49 -4
460 49 -4
491 49 4
633 49 4
462 50 -4
464 50 4
491 50 4
493 50 -4
166 51 -4
182 51 4
53 52 4
330 52 -4
389 52 4
284 53 -4
415 53 -4
508 53 4
65 54 -4
144 54 4
508 54 -4
509 54 4
56 55 -4
57 55 4
205 55 4
348 55 -4
316 56 -4
392 56 4
660 56 4
176 57 -4
508 57 4
509 57 -4
59 58 4
373 58 -4
397 58 4
618 58 -4
205 59 -4
267 59 4
577 59 -4
102 60 4
332 60 -4
397 60 4
546 60 -4
62 61 4
75 61 4
377 61 -4
300 62 -4
401 62 -4
521 62 4
337 63 -4
427 63 -4
527 63 4
682 63 4
129 64 4
428 64 -4
527 64 4
529 64 -4
66 65 4
347 65 -4
413 65 4
280 66 -4
444 66 -4
478 66 4
280 67 -4
478 67 -4
479 67 4
506 67 4
69 68 4
196 68 4
542 68 -4
617 68 -4
187 69 -4
478 69 4
479 69 -4
71 70 4
350 70 -4
421 70 4
664 70 -4
196 71 -4
262 71 4
544 71 -4
92 72 4
351 72 -4
421 72 4
580 72 -4
273 73 4
293 73 -4
376 73 -4
552 73 4
218 74 4
225 74 4
273 74 -4
335 74 -4
273 75 -4
631 75 4
679 75 -4
127 76 4
308 76 4
525 76 -4
631 76 -4
78 77 -4
120 77 4
560 77 4
563 77 -4
191 78 4
404 78 4
284 79 -4
444 79 -4
445 79 4
477 79 4
81 80 4
186 80 4
575 80 -4
662 80 -4
197 81 -4
444 81 4
445 81 -4
374 82 -4
450 82 4
517 82 4
623 82 -4
163 83 4
334 83 -4
517 83 4
670 83 -4
125 84 -4
252 84 4
274 84 4
353 84 -4
117 85 4
589 85 -4
682 85 4
109 86 4
380 86 -4
594 86 4
597 86 -4
286 87 -4
415 87 -4
416 87 4
443 87 4
89 88 4
175 88 4
370 88 -4
615 88 -4
206 89 -4
415 89 4
416 89 -4
91 90 4
92 90 -4
155 90 4
452 90 -4
199 91 -4
208 91 4
668 91 -4
177 92 -4
581 92 4
115 93 -4
257 93 4
275 93 4
335 93 -4
105 94 4
555 94 -4
633 94 4
460 95 -4
523 95 4
633 95 -4
356 96 -4
562 96 4
637 96 4
640 96 -4
130 97 4
495 97 -4
562 97 4
99 98 4
468 98 -4
603 98 4
650 98 -4
234 99 4
384 99 -4
532 99 -4
393 100 4
395 100 -4
447 100 4
659 100 -4
102 101 -4
147 101 4
484 101 -4
579 101 4
171 102 -4
624 102 4
104 103 4
551 103 4
676 103 -4
147 104 -4
231 104 4
236 105 -4
522 105 -4
427 106 -4
554 106 4
337 107 -4
596 107 4
686 107 4
689 107 -4
109 108 -4
121 108 4
358 108 -4
596 108 4
381 109 -4
641 109 4
111 110 4
434 110 -4
570 110 4
699 110 -4
228 111 4
360 111 -4
497 111 -4
124 112 4
332 112 -4
420 112 4
114 113 -4
137 113 4
519 113 -4
622 113 4
398 114 -4
671 114 4
116 115 4
549 115 -4
585 115 4
137 116 -4
224 116 4
241 117 -4
487 117 -4
403 118 -4
588 118 4
246 119 -4
336 119 4
558 119 -4
279 120 -4
404 120 -4
598 120 4
279 121 -4
311 121 4
322 121 -4
220 122 4
341 122 -4
467 122 -4
535 122 4
185 123 -4
223 123 4
446 123 4
574 123 -4
349 124 -4
545 124 4
578 124 -4
126 125 -4
628 125 4
673 125 4
163 126 -4
240 126 4
627 126 4
456 127 4
457 127 -4
459 127 -4
201 128 -4
254 128 -4
525 128 4
686 128 4
247 129 4
282 129 -4
429 129 -4
282 130 -4
302 130 4
340 130 -4
211 131 4
323 131 -4
432 131 -4
499 131 4
255 132 -4
266 132 4
573 132 -4
134 133 4
369 133 4
480 133 -4
195 134 -4
215 134 4
541 134 -4
317 135 4
372 135 -4
516 135 4
621 135 -4
171 136 4
306 136 4
399 136 -4
516 136 -4
138 137 4
306 137 -4
293 138 4
453 138 -4
625 138 -4
245 139 4
293 139 -4
452 139 -4
675 139 4
253 140 -4
676 140 4
677 140 -4
489 141 -4
634 141 4
678 141 4
285 142 4
339 142 -4
404 142 4
638 142 -4
203 143 4
312 143 -4
407 143 -4
470 143 4
261 144 4
539 144 -4
540 144 -4
206 145 4
316 145 -4
509 145 -4
510 145 4
169 146 -4
319 146 4
375 146 -4
398 146 4
148 147 4
319 147 -4
300 148 4
424 148 -4
582 148 -4
258 149 -4
628 149 4
629 149 -4
179 150 4
460 150 -4
591 150 4
287 151 4
321 151 -4
429 151 4
595 151 -4
159 152 -4
384 152 -4
435 152 4
697 152 4
167 153 4
288 153 -4
386 153 4
410 153 -4
162 154 -4
333 154 4
352 154 -4
422 154 4
156 155 4
333 155 -4
549 155 -4
307 156 4
401 156 -4
548 156 -4
264 157 -4
585 157 4
587 157 -4
289 158 4
310 158 -4
463 158 4
561 158 -4
160 159 4
161 159 4
290 159 -4
323 160 -4
405 160 4
465 160 -4
324 161 -4
360 161 -4
408 161 4
244 162 4
450 162 4
451 162 -4
164 163 4
352 163 -4
320 164 4
376 164 -4
519 164 -4
294 165 4
301 165 -4
492 165 4
528 165 -4
312 166 4
341 166 -4
296 167 -4
173 168 -4
267 168 4
418 168 4
575 168 -4
250 169 4
483 169 -4
667 169 4
335 170 4
353 170 -4
452 170 4
484 170 -4
373 171 4
374 171 -4
227 172 4
357 172 -4
462 172 4
634 172 -4
174 173 4
176 173 4
416 173 -4
230 174 4
368 174 -4
613 174 -4
176 175 4
481 175 -4
482 175 -4
511 176 -4
350 177 4
351 177 -4
669 177 4
240 178 -4
519 178 4
669 178 4
670 178 -4
487 179 4
524 179 -4
553 179 -4
337 180 -4
428 180 4
461 180 4
591 180 -4
182 181 -4
183 181 4
313 181 -4
325 181 4
220 182 4
385 182 -4
326 183 -4
328 183 4
344 183 -4
185 184 4
187 184 4
445 184 -4
616 184 -4
222 185 4
573 185 -4
187 186 4
188 186 -4
512 186 -4
480 187 -4
447 188 4
514 188 -4
576 188 4
331 189 4
332 189 -4
517 189 -4
622 189 4
245 190 -4
548 190 4
622 190 4
623 190 -4
356 191 -4
490 191 4
558 191 -4
203 192 4
326 192 4
342 192 -4
697 192 -4
228 193 4
326 193 -4
361 193 4
409 193 -4
195 194 4
197 194 4
479 194 -4
661 194 -4
214 195 4
540 195 -4
197 196 4
198 196 -4
448 197 -4
418 198 4
544 198 -4
619 198 4
318 199 -4
579 199 4
251 200 -4
579 200 4
580 200 -4
582 200 4
236 201 -4
309 201 4
524 201 4
599 202 4
688 202 4
689 202 -4
692 202 -4
648 203 -4
650 203 -4
234 204 4
342 204 -4
438 204 -4
206 205 4
207 205 -4
419 206 -4
394 207 4
577 207 -4
665 207 4
256 208 -4
546 208 -4
625 208 4
356 209 4
357 209 -4
562 209 -4
639 209 4
639 210 4
640 210 -4
642 210 4
643 210 -4
325 211 4
602 211 -4
603 211 -4
238 212 4
362 212 -4
408 212 4
472 212 -4
214 213 4
330 213 -4
507 213 -4
477 214 -4
479 214 -4
393 215 -4
395 215 -4
617 215 4
217 216 4
369 216 4
617 216 -4
620 216 -4
332 217 4
371 217 -4
374 217 -4
253 218 -4
673 218 4
674 218 -4
596 219 4
597 219 -4
600 219 -4
691 219 4
569 220 -4
570 220 -4
222 221 4
346 221 4
347 221 -4
540 221 -4
443 222 -4
445 222 -4
368 223 -4
370 223 -4
662 223 4
258 224 -4
354 224 4
626 224 -4
226 225 4
354 225 -4
426 225 -4
486 226 -4
523 226 -4
588 226 4
241 227 4
590 227 -4
592 227 -4
534 228 -4
536 228 -4
230 229 4
366 229 4
367 229 -4
573 229 -4
416 230 -4
654 230 -4
264 231 -4
378 231 4
583 231 -4
236 232 4
557 232 -4
635 232 -4
684 232 4
381 233 4
684 233 4
685 233 -4
687 233 -4
498 234 -4
500 234 -4
398 235 4
665 235 4
666 235 -4
668 235 -4
523 236 4
404 237 4
635 237 4
636 237 -4
638 237 -4
468 238 4
469 238 -4
471 238 -4
422 239 4
619 239 4
620 239 -4
621 239 -4
671 240 4
674 240 -4
488 241 4
490 241 -4
429 242 4
592 242 4
593 242 -4
595 242 -4
443 243 4
655 243 -4
576 244 4
577 244 -4
578 244 -4
624 245 4
626 245 -4
463 246 4
559 246 4
561 246 -4
248 247 4
464 247 -4
565 247 -4
466 248 4
531 248 -4
641 248 -4
477 249 4
611 249 -4
543 250 4
544 250 -4
545 250 -4
485 251 4
581 251 4
583 251 -4
253 252 4
487 252 -4
587 252 -4
675 253 4
492 254 4
526 254 4
528 254 -4
506 255 4
520 256 4
547 256 4
550 256 -4
258 257 4
522 257 -4
629 257 -4
627 258 4
260 259 4
538 259 -4
269 260 -4
701 260 4
702 260 -4
655 261 -4
660 262 4
661 262 -4
664 262 -4
264 263 4
551 263 4
553 263 -4
677 263 -4
584 264 4
572 265 -4
703 265 4
611 266 -4
616 267 -4
618 267 -4
602 268 4
693 268 4
694 268 -4
696 268 -4
703 269 4
272 270 -4
408 270 4
436 270 -4
605 271 -4
698 271 4
354 274 -4
586 274 -4
378 275 -4
456 275 -4
402 276 -4
551 276 4
488 277 4
489 277 -4
679 277 -4
682 277 -4
425 278 -4
585 278 4
382 279 -4
639 279 4
367 280 -4
442 280 4
454 281 -4
456 281 -4
628 281 4
405 282 -4
688 282 4
291 283 -4
608 283 -4
390 284 -4
476 284 4
358 285 -4
430 285 -4
464 285 -4
414 286 -4
505 286 4
656 286 -4
382 287 -4
465 287 -4
493 287 -4
303 288 -4
405 289 -4
494 289 -4
529 289 -4
341 290 -4
382 290 4
494 290 -4
292 291 -4
363 291 4
439 291 -4
314 292 -4
676 293 -4
430 294 -4
530 294 -4
563 294 -4
312 295 -4
358 295 4
360 295 -4
530 295 -4
297 296 -4
343 296 4
473 296 -4
328 297 -4
331 298 -4
450 298 4
512 298 4
334 299 -4
423 299 -4
548 299 -4
669 299 4
485 300 -4
628 300 -4
465 301 -4
564 301 -4
597 301 -4
323 302 -4
384 302 -4
564 302 -4
304 303 -4
327 303 4
502 303 -4
344 304 -4
482 305 4
667 305 4
451 306 -4
582 306 -4
520 307 -4
585 307 -4
309 308 -4
355 308 -4
459 308 -4
336 309 -4
380 309 -4
494 310 -4
599 310 -4
640 310 -4
341 311 -4
407 311 -4
599 311 -4
644 312 -4
314 313 4
342 313 -4
364 313 -4
315 314 -4
701 314 -4
364 315 -4
391 316 -4
507 316 4
318 317 -4
449 317 4
665 318 4
483 319 -4
625 319 -4
377 320 -4
550 320 -4
551 320 -4
530 321 -4
642 321 -4
689 321 -4
360 322 -4
432 322 -4
642 322 -4
433 323 -4
325 324 4
362 325 -4
327 326 -4
362 327 -4
387 327 -4
329 328 -4
652 328 -4
387 329 -4
576 331 4
518 333 -4
672 333 -4
673 334 4
583 335 -4
338 336 -4
338 337 -4
596 338 -4
564 339 -4
691 339 -4
384 340 -4
467 340 -4
691 340 -4
343 342 -4
385 343 -4
411 343 -4
345 344 -4
606 344 -4
411 345 -4
481 348 -4
510 348 -4
663 348 4
351 349 -4
396 349 4
543 350 4
513 351 -4
546 352 -4
354 353 -4
626 353 -4
357 355 -4
403 355 -4
560 355 4
359 358 -4
407 359 -4
497 359 -4
692 359 4
433 361 -4
649 361 -4
696 361 -4
363 362 -4
409 363 -4
440 363 -4
365 364 -4
653 364 -4
440 365 -4
417 368 4
614 368 -4
371 369 -4
661 369 4
371 370 -4
372 371 4
374 372 -4
514 373 4
452 375 -4
580 375 -4
378 376 -4
674 376 -4
453 377 -4
455 377 4
455 378 -4
455 379 -4
458 379 -4
554 379 -4
381 380 4
688 381 4
383 382 -4
432 383 -4
532 383 -4
643 383 4
386 385 -4
437 385 -4
438 386 -4
474 386 -4
388 387 -4
702 387 -4
474 388 -4
610 389 4
610 390 -4
392 391 -4
610 391 -4
393 392 -4
657 392 -4
658 393 -4
396 394 -4
446 394 4
616 394 4
396 395 -4
665 396 -4
398 397 4
544 397 4
400 399 -4
484 399 -4
623 399 -4
549 400 -4
671 400 4
402 401 -4
486 402 -4
584 402 4
524 403 -4
635 403 4
406 405 -4
467 406 -4
567 406 -4
600 406 4
468 407 -4
602 408 -4
410 409 -4
471 409 -4
472 410 -4
503 410 -4
412 411 -4
503 412 -4
654 413 4
654 414 -4
418 417 4
419 417 -4
420 418 -4
420 419 -4
619 420 -4
422 421 4
577 421 4
423 422 -4
671 423 -4
425 424 -4
521 425 -4
627 425 4
488 426 -4
521 426 -4
630 426 4
556 427 -4
592 427 4
429 428 4
431 430 -4
644 430 -4
497 431 -4
565 431 4
601 431 -4
434 432 -4
436 433 -4
647 433 -4
436 434 -4
601 434 -4
437 435 4
569 435 -4
698 435 4
437 436 -4
501 437 -4
439 438 -4
500 438 -4
501 439 -4
538 439 -4
441 440 -4
538 441 -4
443 442 4
448 446 -4
449 447 -4
660 447 4
449 448 -4
576 449 -4
620 450 4
624 451 -4
454 453 -4
552 454 -4
675 454 4
457 455 -4
552 457 -4
678 457 4
459 458 -4
522 458 4
556 458 -4
461 459 -4
559 460 4
559 461 -4
632 461 -4
463 462 4
464 463 -4
466 465 -4
532 466 -4
646 466 -4
469 467 -4
567 468 -4
535 469 -4
646 469 -4
471 470 4
534 470 -4
649 470 4
537 471 -4
473 472 -4
536 472 -4
537 473 -4
572 473 -4
475 474 -4
572 475 -4
477 476 4
482 480 -4
513 481 -4
543 481 4
543 482 -4
581 483 -4
485 484 -4
675 485 -4
487 486 -4
526 489 4
526 490 -4
681 490 -4
492 491 4
684 491 4
493 492 -4
598 493 -4
496 494 -4
496 495 -4
598 495 -4
644 495 -4
567 496 -4
695 496 -4
498 497 -4
499 498 -4
695 498 -4
500 499 4
571 500 -4
502 501 -4
570 501 -4
571 502 -4
607 502 -4
504 503 -4
605 503 4
607 504 -4
506 505 4
507 506 -4
509 507 -4
511 510 -4
512 511 -4
514 512 -4
515 513 -4
663 513 -4
515 514 -4
516 515 -4
518 516 -4
547 517 4
547 518 -4
520 519 -4
627 520 -4
522 521 -4
680 525 -4
637 526 4
528 527 4
635 527 4
529 528 -4
641 529 -4
531 530 -4
533 531 -4
601 531 -4
534 532 -4
534 533 -4
645 533 -4
536 535 4
604 536 -4
603 537 -4
701 537 -4
541 540 -4
542 541 -4
660 542 -4
546 545 -4
669 545 -4
672 547 4
550 548 -4
584 549 4
584 550 -4
553 552 -4
555 553 -4
557 554 4
557 555 -4
558 556 4
558 557 -4
594 559 4
561 560 4
592 560 4
563 561 -4
690 562 4
690 563 -4
566 564 -4
566 565 -4
690 565 -4
568 566 -4
646 566 -4
569 567 -4
569 568 -4
694 568 -4
651 570 -4
650 571 -4
652 571 -4
574 573 -4
575 574 -4
580 578 -4
622 578 -4
621 579 -4
583 582 -4
589 586 4
589 587 -4
678 587 -4
590 588 4
677 588 -4
590 589 -4
591 590 -4
593 591 -4
686 593 -4
595 594 4
685 594 -4
597 595 -4
600 598 -4
693 599 -4
693 600 -4
602 601 -4
700 603 -4
606 604 -4
699 604 -4
701 604 -4
608 605 -4
608 606 -4
700 606 -4
609 607 -4
609 608 -4
613 610 -4
613 611 -4
614 612 4
655 612 4
614 613 -4
615 614 -4
616 615 -4
618 617 -4
620 618 -4
623 621 -4
626 625 -4
630 629 -4
631 629 -4
632 630 4
680 630 4
632 631 -4
634 632 -4
636 633 4
636 634 -4
637 636 -4
638 637 4
640 638 -4
643 641 -4
645 642 -4
645 643 -4
647 644 -4
647 645 -4
648 646 -4
648 647 -4
652 651 -4
653 651 -4
703 652 4
703 653 -4
657 654 -4
657 655 -4
658 656 4
658 657 -4
659 658 -4
661 659 -4
663 662 -4
664 662 -4
666 663 -4
666 664 -4
667 666 4
668 667 -4
670 668 -4
673 672 -4
674 672 -4
679 677 -4
681 678 4
681 679 -4
683 680 4
683 681 -4
685 682 4
684 683 -4
685 683 -4
687 686 4
688 687 -4
689 687 -4
692 690 -4
694 691 -4
694 692 -4
695 693 -4
696 695 -4
697 696 -4
699 697 -4
702 700 -4
434
270 2
271 2
272 4
273 2
274 2
275 2
276 2
277 2
278 2
279 2
280 2
281 2
282 2
283 2
284 2
285 2
286 2
287 2
288 2
289 2
290 2
291 2
292 2
293 2
294 2
295 2
296 2
297 2
298 -2
299 2
300 2
301 4
302 2
303 2
304 2
305 -2
306 2
307 2
308 2
309 2
310 4
311 2
312 2
313 2
314 2
315 2
316 2
317 -2
318 2
319 2
320 2
321 4
322 4
323 4
324 2
325 -2
326 2
327 2
328 2
329 2
330 2
331 -2
332 2
333 2
334 2
335 2
336 2
337 4
338 4
339 2
340 4
341 4
342 4
343 2
344 4
345 2
346 -2
347 2
348 2
349 2
350 -2
351 4
352 4
353 4
354 2
355 2
356 2
357 4
358 2
359 2
360 4
361 2
362 4
363 2
364 4
365 2
366 -2
367 2
368 2
369 -2
370 2
371 2
372 2
373 -2
374 4
375 4
376 4
377 2
378 2
379 4
380 2
381 -2
382 2
383 2
384 4
385 4
386 2
387 4
388 2
389 -2
390 2
391 4
392 2
393 2
394 -2
395 2
396 2
397 -4
398 -2
399 4
400 2
401 2
402 2
403 2
404 -2
405 2
406 2
407 4
408 -2
409 4
410 4
411 2
412 2
413 -2
414 2
415 2
416 2
417 -2
418 -2
419 2
420 2
421 -4
422 -2
423 2
424 2
425 2
426 2
427 2
428 -2
429 -2
430 4
431 2
432 4
433 4
434 4
435 -2
436 4
437 2
438 4
439 4
440 2
441 2
442 -2
443 -2
444 2
445 2
446 -2
447 -2
448 4
449 2
450 -4
451 2
452 2
453 4
454 2
455 2
456 2
457 2
458 2
459 4
460 2
461 2
462 -2
463 -2
464 2
465 4
466 2
467 4
468 2
469 4
470 -2
471 2
472 4
473 4
474 2
475 2
476 -2
477 -2
478 -2
479 2
480 4
481 2
482 2
483 4
484 4
485 2
486 2
487 2
488 -2
489 2
490 2
491 -4
492 -2
493 4
494 4
495 4
496 4
497 4
498 4
499 -2
500 2
501 4
502 4
503 2
504 2
505 -2
506 -2
507 2
508 -2
509 2
510 2
511 4
512 2
513 4
514 2
515 4
516 2
517 -2
518 4
519 2
520 2
521 2
522 2
523 -2
524 2
525 2
526 -2
527 -4
528 2
529 4
530 4
531 4
532 4
533 2
534 4
535 -2
536 2
537 4
538 4
539 2
540 4
541 2
542 2
543 -2
544 2
545 2
546 4
547 -2
548 2
549 2
550 4
551 -2
552 2
553 4
554 -2
555 2
556 2
557 2
558 2
559 -2
560 -4
561 2
562 -2
563 4
564 4
565 2
566 4
567 4
568 4
569 4
570 2
571 4
572 4
573 4
574 2
575 2
576 -2
577 2
578 4
579 -2
580 4
581 -2
582 2
583 4
584 -2
585 -2
586 -2
587 4
588 -2
589 2
590 2
591 2
592 -2
593 2
594 -2
595 2
596 -2
597 4
598 2
599 2
600 2
601 4
602 2
603 2
604 4
605 2
606 4
607 4
608 4
609 2
610 2
611 2
612 -4
613 4
614 2
615 4
616 2
617 2
618 4
619 -2
620 2
621 4
622 -2
623 4
624 -2
625 2
626 4
627 -2
628 -2
629 4
630 -2
631 2
632 2
633 -2
634 2
635 -2
636 2
637 -2
638 2
639 -4
640 4
641 2
642 2
643 2
644 4
645 4
646 4
647 4
648 4
649 -2
650 4
651 2
652 2
653 4
654 2
655 2
656 -2
657 4
658 2
659 4
660 -2
661 2
662 2
663 2
664 4
665 -2
666 2
667 -2
668 4
669 -2
670 4
671 -2
672 2
673 -2
674 4
675 -2
676 2
677 4
678 -2
679 4
680 -2
681 2
682 -2
683 2
684 -2
685 2
686 -2
687 2
688 -2
689 4
690 2
691 2
692 2
693 2
694 4
695 4
696 4
697 2
698 -2
699 4
700 2
701 2
702 4
703 -2
